
Log started (V11.0.0) Tue May 13 17:39:50 2008

Tried aggregator 1 time.
Reduced MIP has 120 rows, 2001 columns, and 4020 nonzeros.
Presolve time =    0.02 sec.
Clique table members: 100.
MIP emphasis: balance optimality and feasibility.
MIP search method: dynamic search.
Parallel mode: none, using 1 thread.
Root relaxation solution time =    0.03 sec.

        Nodes                                         Cuts/
   Node  Left     Objective  IInf  Best Integer     Best Node    ItCnt     Gap

*     0+    0                        10145.0000       95.1442      315   99.06%
*     0+    0                          130.0000       95.1442      315   26.81%
      0     0       96.0000    30      130.0000      Fract: 6      340   26.15%
*     0+    0                          124.0000       96.0000      340   22.58%
      0     0       96.3800    39      124.0000       Cuts: 7      411   22.27%
*     0+    0                          120.0000       96.3800      411   19.68%
      0     0       98.2638    48      120.0000      Cuts: 13      455   18.11%
*     0+    0                          108.0000       98.2638      455    9.02%
      0     0       98.4044    50      108.0000       Cuts: 7      486    8.88%
      0     0       98.9467    43      108.0000       Cuts: 5      527    8.38%
      0     0       98.9570    43      108.0000       Cuts: 4      542    8.37%
*     0+    0                          105.0000       98.9570      542    5.76%
      0     0       99.3993    40      105.0000       Cuts: 3      571    5.33%
      0     0       99.4469    40      105.0000       Cuts: 7      582    5.29%
      0     0       99.5279    42      105.0000       Cuts: 2      588    5.21%
      0     0       99.5484    47      105.0000       Cuts: 2      594    5.19%
      0     0       99.7305    39      105.0000       Cuts: 3      596    5.02%
      0     0       99.7305    42      105.0000     Covers: 1      597    5.02%
*     0+    0                          104.0000       99.7305      597    4.11%
*     0+    0                          102.0000       99.7305      597    2.22%
      0     2      100.0000    36      102.0000       99.7305      597    2.22%
    100    78      100.0000    21      102.0000      100.0000     1907    1.96%
    200   151    infeasible            102.0000      100.0000     3047    1.96%
    300   221    infeasible            102.0000      100.0000     4732    1.96%
    400   261      101.0000    21      102.0000      100.0000     6477    1.96%

Clique cuts applied:  2
Cover cuts applied:  18
Mixed integer rounding cuts applied:  10
Zero-half cuts applied:  2
Gomory fractional cuts applied:  4

Solution pool: 8 solutions saved.

MIP - Integer optimal solution:  Objective = 1.0200000000e+002
Solution time =    3.89 sec.  Iterations = 7633  Nodes = 471 (294)


Incumbent solution
Variable Name           Solution Value
Cmax                        102.000000
X_1_8                         1.000000
X_2_11                        1.000000
X_3_10                        1.000000
X_4_8                         1.000000
X_5_18                        1.000000
X_6_17                        1.000000
X_7_8                         1.000000
X_8_17                        1.000000
X_9_11                        1.000000
X_10_8                        1.000000
X_11_6                        1.000000
X_12_6                        1.000000
X_13_7                        1.000000
X_14_8                        1.000000
X_15_1                        1.000000
X_16_11                       1.000000
X_17_13                       1.000000
X_18_18                       1.000000
X_19_18                       1.000000
X_20_15                       1.000000
X_21_17                       1.000000
X_22_17                       1.000000
X_23_6                        1.000000
X_24_9                        1.000000
X_25_12                       1.000000
X_26_1                        1.000000
X_27_7                        1.000000
X_28_8                        1.000000
X_29_7                        1.000000
X_30_6                        1.000000
X_31_8                        1.000000
X_32_8                        1.000000
X_33_17                       1.000000
X_34_17                       1.000000
X_35_17                       1.000000
X_36_7                        1.000000
X_37_17                       1.000000
X_38_17                       1.000000
X_39_12                       1.000000
X_40_8                        1.000000
X_41_11                       1.000000
X_42_2                        1.000000
X_43_16                       1.000000
X_44_17                       1.000000
X_45_8                        1.000000
X_46_17                       1.000000
X_47_17                       1.000000
X_48_7                        1.000000
X_49_11                       1.000000
X_50_8                        1.000000
X_51_1                        1.000000
X_52_13                       1.000000
X_53_16                       1.000000
X_54_5                        1.000000
X_55_8                        1.000000
X_56_8                        1.000000
X_57_17                       1.000000
X_58_12                       1.000000
X_59_17                       1.000000
X_60_6                        1.000000
X_61_11                       1.000000
X_62_17                       1.000000
X_63_11                       1.000000
X_64_12                       1.000000
X_65_11                       1.000000
X_66_19                       1.000000
X_67_6                        1.000000
X_68_14                       1.000000
X_69_11                       1.000000
X_70_11                       1.000000
X_71_10                       1.000000
X_72_7                        1.000000
X_73_8                        1.000000
X_74_8                        1.000000
X_75_8                        1.000000
X_76_3                        1.000000
X_77_17                       1.000000
X_78_6                        1.000000
X_79_17                       1.000000
X_80_17                       1.000000
X_81_4                        1.000000
X_82_8                        1.000000
X_83_1                        1.000000
X_84_6                        1.000000
X_85_17                       1.000000
X_86_8                        1.000000
X_87_17                       1.000000
X_88_3                        1.000000
X_89_1                        1.000000
X_90_8                        1.000000
X_91_1                        1.000000
X_92_11                       1.000000
X_93_9                        1.000000
X_94_17                       1.000000
X_95_17                       1.000000
X_96_17                       1.000000
X_97_6                        1.000000
X_98_17                       1.000000
X_99_17                       1.000000
X_100_20                      1.000000
All other variables in the range 1-2001 are 0.
